% File represents an instance of a Composite Structure problem to be solved by a CP framework
% Created on 2025-03-26 10:41:25.878
T = 56;
n = 16;
m = 24;
edges = [(1, 2),
(5, 6),
(10, 9),
(14, 13),
(3, 2),
(6, 7),
(10, 11),
(15, 14),
(3, 4),
(8, 7),
(12, 11),
(16, 15),
(5, 1),
(5, 9),
(9, 13),
(6, 2),
(10, 6),
(10, 14),
(3, 7),
(11, 7),
(15, 11),
(8, 4),
(12, 8),
(16, 12)];
counts = [|20, 8, 20, 4,
|20, 6, 20, 2,
|20, 6, 20, 8,
|20, 6, 20, 2,
|20, 10, 20, 6,
|20, 10, 20, 2,
|20, 6, 20, 2,
|20, 8, 20, 2,
|20, 10, 20, 2,
|20, 12, 20, 2,
|20, 8, 20, 2,
|20, 10, 20, 2,
|18, 8, 18, 2,
|20, 10, 20, 2,
|20, 12, 20, 2,
|20, 12, 20, 4|];
